43627.31,63.37,76.85
38808.24,71.24,86.39
38622.27,71.58,86.8
40668.22,67.98,82.44
43001.26,64.29,77.96
42324.55,65.32,79.21
36776.95,75.17,91.16
44802.83,61.71,74.83
40692.09,67.94,82.39
40022.79,69.07,83.77
40955.07,67.5,81.86
43723.39,63.23,76.68
43005.48,64.28,77.96
40678.63,67.96,82.42
42772.66,64.63,78.38
45192.54,61.17,74.18
35084.44,78.8,95.56
40862.45,67.66,82.05
41004.2,67.42,81.76
46705.75,59.19,71.78
